(set-info :category "industrial")
(set-info :status sat)
(declare-fun x00 () (_ BitVec 8))
(declare-fun x02 () (_ BitVec 8))
(declare-fun x04 () (_ BitVec 8))
(declare-fun x05 () (_ BitVec 8))
(declare-fun x06 () (_ BitVec 8))
(declare-fun x08 () (_ BitVec 8))
(declare-fun x10 () (_ BitVec 8))
(declare-fun x13 () (_ BitVec 8))
(declare-fun x15 () (_ BitVec 8))
(declare-fun x17 () (_ BitVec 8))
(declare-fun x18 () (_ BitVec 8))
(declare-fun x20 () (_ BitVec 8))
(declare-fun x21 () (_ BitVec 8))
(declare-fun x22 () (_ BitVec 8))
(declare-fun x23 () (_ BitVec 8))
(declare-fun x27 () (_ BitVec 8))
(declare-fun x32 () (_ BitVec 8))
(declare-fun x33 () (_ BitVec 8))
(declare-fun x35 () (_ BitVec 8))
(declare-fun x36 () (_ BitVec 8))
(declare-fun x38 () (_ BitVec 8))
(declare-fun x40 () (_ BitVec 8))
(declare-fun x41 () (_ BitVec 8))
(declare-fun x43 () (_ BitVec 8))
(declare-fun x44 () (_ BitVec 8))
(declare-fun x45 () (_ BitVec 8))
(declare-fun x46 () (_ BitVec 8))
(declare-fun x47 () (_ BitVec 8))
(declare-fun x52 () (_ BitVec 8))
(declare-fun x53 () (_ BitVec 8))
(declare-fun x56 () (_ BitVec 8))
(declare-fun x57 () (_ BitVec 8))
(declare-fun x60 () (_ BitVec 8))
(declare-fun x61 () (_ BitVec 8))
(declare-fun x67 () (_ BitVec 8))
(declare-fun x68 () (_ BitVec 8))
(declare-fun x72 () (_ BitVec 8))
(declare-fun x73 () (_ BitVec 8))
(declare-fun x76 () (_ BitVec 8))
(declare-fun x78 () (_ BitVec 8))
(declare-fun x80 () (_ BitVec 8))
(declare-fun x81 () (_ BitVec 8))
(declare-fun x83 () (_ BitVec 8))
(declare-fun x84 () (_ BitVec 8))
(declare-fun x86 () (_ BitVec 8))
(declare-fun x87 () (_ BitVec 8))
(assert (bvult x00 (_ bv9 8)))
(assert (bvult x02 (_ bv9 8)))
(assert (bvult x04 (_ bv9 8)))
(assert (bvult x05 (_ bv9 8)))
(assert (bvult x06 (_ bv9 8)))
(assert (bvult x08 (_ bv9 8)))
(assert (bvult x10 (_ bv9 8)))
(assert (bvult x13 (_ bv9 8)))
(assert (bvult x15 (_ bv9 8)))
(assert (bvult x17 (_ bv9 8)))
(assert (bvult x18 (_ bv9 8)))
(assert (bvult x20 (_ bv9 8)))
(assert (bvult x21 (_ bv9 8)))
(assert (bvult x22 (_ bv9 8)))
(assert (bvult x23 (_ bv9 8)))
(assert (bvult x27 (_ bv9 8)))
(assert (bvult x32 (_ bv9 8)))
(assert (bvult x33 (_ bv9 8)))
(assert (bvult x35 (_ bv9 8)))
(assert (bvult x36 (_ bv9 8)))
(assert (bvult x38 (_ bv9 8)))
(assert (bvult x40 (_ bv9 8)))
(assert (bvult x41 (_ bv9 8)))
(assert (bvult x43 (_ bv9 8)))
(assert (bvult x44 (_ bv9 8)))
(assert (bvult x45 (_ bv9 8)))
(assert (bvult x46 (_ bv9 8)))
(assert (bvult x47 (_ bv9 8)))
(assert (bvult x52 (_ bv9 8)))
(assert (bvult x53 (_ bv9 8)))
(assert (bvult x56 (_ bv9 8)))
(assert (bvult x57 (_ bv9 8)))
(assert (bvult x60 (_ bv9 8)))
(assert (bvult x61 (_ bv9 8)))
(assert (bvult x67 (_ bv9 8)))
(assert (bvult x68 (_ bv9 8)))
(assert (bvult x72 (_ bv9 8)))
(assert (bvult x73 (_ bv9 8)))
(assert (bvult x76 (_ bv9 8)))
(assert (bvult x78 (_ bv9 8)))
(assert (bvult x80 (_ bv9 8)))
(assert (bvult x81 (_ bv9 8)))
(assert (bvult x83 (_ bv9 8)))
(assert (bvult x84 (_ bv9 8)))
(assert (bvult x86 (_ bv9 8)))
(assert (bvult x87 (_ bv9 8)))
(assert (not (= x00 (_ bv8 8))))
(assert (not (= x00 x02)))
(assert (not (= x00 (_ bv2 8))))
(assert (not (= x00 x04)))
(assert (not (= x00 x05)))
(assert (not (= x00 x06)))
(assert (not (= x00 (_ bv9 8))))
(assert (not (= x00 x08)))
(assert (not (= (_ bv8 8) x02)))
(assert (not (= (_ bv8 8) (_ bv2 8))))
(assert (not (= (_ bv8 8) x04)))
(assert (not (= (_ bv8 8) x05)))
(assert (not (= (_ bv8 8) x06)))
(assert (not (= (_ bv8 8) (_ bv9 8))))
(assert (not (= (_ bv8 8) x08)))
(assert (not (= x02 (_ bv2 8))))
(assert (not (= x02 x04)))
(assert (not (= x02 x05)))
(assert (not (= x02 x06)))
(assert (not (= x02 (_ bv9 8))))
(assert (not (= x02 x08)))
(assert (not (= (_ bv2 8) x04)))
(assert (not (= (_ bv2 8) x05)))
(assert (not (= (_ bv2 8) x06)))
(assert (not (= (_ bv2 8) (_ bv9 8))))
(assert (not (= (_ bv2 8) x08)))
(assert (not (= x04 x05)))
(assert (not (= x04 x06)))
(assert (not (= x04 (_ bv9 8))))
(assert (not (= x04 x08)))
(assert (not (= x05 x06)))
(assert (not (= x05 (_ bv9 8))))
(assert (not (= x05 x08)))
(assert (not (= x06 (_ bv9 8))))
(assert (not (= x06 x08)))
(assert (not (= (_ bv9 8) x08)))
(assert (not (= x10 (_ bv1 8))))
(assert (not (= x10 (_ bv9 8))))
(assert (not (= x10 x13)))
(assert (not (= x10 (_ bv5 8))))
(assert (not (= x10 x15)))
(assert (not (= x10 (_ bv6 8))))
(assert (not (= x10 x17)))
(assert (not (= x10 x18)))
(assert (not (= (_ bv1 8) (_ bv9 8))))
(assert (not (= (_ bv1 8) x13)))
(assert (not (= (_ bv1 8) (_ bv5 8))))
(assert (not (= (_ bv1 8) x15)))
(assert (not (= (_ bv1 8) (_ bv6 8))))
(assert (not (= (_ bv1 8) x17)))
(assert (not (= (_ bv1 8) x18)))
(assert (not (= (_ bv9 8) x13)))
(assert (not (= (_ bv9 8) (_ bv5 8))))
(assert (not (= (_ bv9 8) x15)))
(assert (not (= (_ bv9 8) (_ bv6 8))))
(assert (not (= (_ bv9 8) x17)))
(assert (not (= (_ bv9 8) x18)))
(assert (not (= x13 (_ bv5 8))))
(assert (not (= x13 x15)))
(assert (not (= x13 (_ bv6 8))))
(assert (not (= x13 x17)))
(assert (not (= x13 x18)))
(assert (not (= (_ bv5 8) x15)))
(assert (not (= (_ bv5 8) (_ bv6 8))))
(assert (not (= (_ bv5 8) x17)))
(assert (not (= (_ bv5 8) x18)))
(assert (not (= x15 (_ bv6 8))))
(assert (not (= x15 x17)))
(assert (not (= x15 x18)))
(assert (not (= (_ bv6 8) x17)))
(assert (not (= (_ bv6 8) x18)))
(assert (not (= x17 x18)))
(assert (not (= x20 x21)))
(assert (not (= x20 x22)))
(assert (not (= x20 x23)))
(assert (not (= x20 (_ bv3 8))))
(assert (not (= x20 (_ bv1 8))))
(assert (not (= x20 (_ bv2 8))))
(assert (not (= x20 x27)))
(assert (not (= x20 (_ bv4 8))))
(assert (not (= x21 x22)))
(assert (not (= x21 x23)))
(assert (not (= x21 (_ bv3 8))))
(assert (not (= x21 (_ bv1 8))))
(assert (not (= x21 (_ bv2 8))))
(assert (not (= x21 x27)))
(assert (not (= x21 (_ bv4 8))))
(assert (not (= x22 x23)))
(assert (not (= x22 (_ bv3 8))))
(assert (not (= x22 (_ bv1 8))))
(assert (not (= x22 (_ bv2 8))))
(assert (not (= x22 x27)))
(assert (not (= x22 (_ bv4 8))))
(assert (not (= x23 (_ bv3 8))))
(assert (not (= x23 (_ bv1 8))))
(assert (not (= x23 (_ bv2 8))))
(assert (not (= x23 x27)))
(assert (not (= x23 (_ bv4 8))))
(assert (not (= (_ bv3 8) (_ bv1 8))))
(assert (not (= (_ bv3 8) (_ bv2 8))))
(assert (not (= (_ bv3 8) x27)))
(assert (not (= (_ bv3 8) (_ bv4 8))))
(assert (not (= (_ bv1 8) (_ bv2 8))))
(assert (not (= (_ bv1 8) x27)))
(assert (not (= (_ bv1 8) (_ bv4 8))))
(assert (not (= (_ bv2 8) x27)))
(assert (not (= (_ bv2 8) (_ bv4 8))))
(assert (not (= x27 (_ bv4 8))))
(assert (not (= (_ bv9 8) (_ bv3 8))))
(assert (not (= (_ bv9 8) x32)))
(assert (not (= (_ bv9 8) x33)))
(assert (not (= (_ bv9 8) (_ bv8 8))))
(assert (not (= (_ bv9 8) x35)))
(assert (not (= (_ bv9 8) x36)))
(assert (not (= (_ bv9 8) (_ bv5 8))))
(assert (not (= (_ bv9 8) x38)))
(assert (not (= (_ bv3 8) x32)))
(assert (not (= (_ bv3 8) x33)))
(assert (not (= (_ bv3 8) (_ bv8 8))))
(assert (not (= (_ bv3 8) x35)))
(assert (not (= (_ bv3 8) x36)))
(assert (not (= (_ bv3 8) (_ bv5 8))))
(assert (not (= (_ bv3 8) x38)))
(assert (not (= x32 x33)))
(assert (not (= x32 (_ bv8 8))))
(assert (not (= x32 x35)))
(assert (not (= x32 x36)))
(assert (not (= x32 (_ bv5 8))))
(assert (not (= x32 x38)))
(assert (not (= x33 (_ bv8 8))))
(assert (not (= x33 x35)))
(assert (not (= x33 x36)))
(assert (not (= x33 (_ bv5 8))))
(assert (not (= x33 x38)))
(assert (not (= (_ bv8 8) x35)))
(assert (not (= (_ bv8 8) x36)))
(assert (not (= (_ bv8 8) (_ bv5 8))))
(assert (not (= (_ bv8 8) x38)))
(assert (not (= x35 x36)))
(assert (not (= x35 (_ bv5 8))))
(assert (not (= x35 x38)))
(assert (not (= x36 (_ bv5 8))))
(assert (not (= x36 x38)))
(assert (not (= (_ bv5 8) x38)))
(assert (not (= x40 x41)))
(assert (not (= x40 (_ bv2 8))))
(assert (not (= x40 x43)))
(assert (not (= x40 x44)))
(assert (not (= x40 x45)))
(assert (not (= x40 x46)))
(assert (not (= x40 x47)))
(assert (not (= x40 (_ bv7 8))))
(assert (not (= x41 (_ bv2 8))))
(assert (not (= x41 x43)))
(assert (not (= x41 x44)))
(assert (not (= x41 x45)))
(assert (not (= x41 x46)))
(assert (not (= x41 x47)))
(assert (not (= x41 (_ bv7 8))))
(assert (not (= (_ bv2 8) x43)))
(assert (not (= (_ bv2 8) x44)))
(assert (not (= (_ bv2 8) x45)))
(assert (not (= (_ bv2 8) x46)))
(assert (not (= (_ bv2 8) x47)))
(assert (not (= (_ bv2 8) (_ bv7 8))))
(assert (not (= x43 x44)))
(assert (not (= x43 x45)))
(assert (not (= x43 x46)))
(assert (not (= x43 x47)))
(assert (not (= x43 (_ bv7 8))))
(assert (not (= x44 x45)))
(assert (not (= x44 x46)))
(assert (not (= x44 x47)))
(assert (not (= x44 (_ bv7 8))))
(assert (not (= x45 x46)))
(assert (not (= x45 x47)))
(assert (not (= x45 (_ bv7 8))))
(assert (not (= x46 x47)))
(assert (not (= x46 (_ bv7 8))))
(assert (not (= x47 (_ bv7 8))))
(assert (not (= (_ bv5 8) (_ bv7 8))))
(assert (not (= (_ bv5 8) x52)))
(assert (not (= (_ bv5 8) x53)))
(assert (not (= (_ bv5 8) (_ bv6 8))))
(assert (not (= (_ bv5 8) (_ bv4 8))))
(assert (not (= (_ bv5 8) x56)))
(assert (not (= (_ bv5 8) x57)))
(assert (not (= (_ bv5 8) (_ bv9 8))))
(assert (not (= (_ bv7 8) x52)))
(assert (not (= (_ bv7 8) x53)))
(assert (not (= (_ bv7 8) (_ bv6 8))))
(assert (not (= (_ bv7 8) (_ bv4 8))))
(assert (not (= (_ bv7 8) x56)))
(assert (not (= (_ bv7 8) x57)))
(assert (not (= (_ bv7 8) (_ bv9 8))))
(assert (not (= x52 x53)))
(assert (not (= x52 (_ bv6 8))))
(assert (not (= x52 (_ bv4 8))))
(assert (not (= x52 x56)))
(assert (not (= x52 x57)))
(assert (not (= x52 (_ bv9 8))))
(assert (not (= x53 (_ bv6 8))))
(assert (not (= x53 (_ bv4 8))))
(assert (not (= x53 x56)))
(assert (not (= x53 x57)))
(assert (not (= x53 (_ bv9 8))))
(assert (not (= (_ bv6 8) (_ bv4 8))))
(assert (not (= (_ bv6 8) x56)))
(assert (not (= (_ bv6 8) x57)))
(assert (not (= (_ bv6 8) (_ bv9 8))))
(assert (not (= (_ bv4 8) x56)))
(assert (not (= (_ bv4 8) x57)))
(assert (not (= (_ bv4 8) (_ bv9 8))))
(assert (not (= x56 x57)))
(assert (not (= x56 (_ bv9 8))))
(assert (not (= x57 (_ bv9 8))))
(assert (not (= x60 x61)))
(assert (not (= x60 (_ bv5 8))))
(assert (not (= x60 (_ bv6 8))))
(assert (not (= x60 (_ bv1 8))))
(assert (not (= x60 (_ bv7 8))))
(assert (not (= x60 (_ bv3 8))))
(assert (not (= x60 x67)))
(assert (not (= x60 x68)))
(assert (not (= x61 (_ bv5 8))))
(assert (not (= x61 (_ bv6 8))))
(assert (not (= x61 (_ bv1 8))))
(assert (not (= x61 (_ bv7 8))))
(assert (not (= x61 (_ bv3 8))))
(assert (not (= x61 x67)))
(assert (not (= x61 x68)))
(assert (not (= (_ bv5 8) (_ bv6 8))))
(assert (not (= (_ bv5 8) (_ bv1 8))))
(assert (not (= (_ bv5 8) (_ bv7 8))))
(assert (not (= (_ bv5 8) (_ bv3 8))))
(assert (not (= (_ bv5 8) x67)))
(assert (not (= (_ bv5 8) x68)))
(assert (not (= (_ bv6 8) (_ bv1 8))))
(assert (not (= (_ bv6 8) (_ bv7 8))))
(assert (not (= (_ bv6 8) (_ bv3 8))))
(assert (not (= (_ bv6 8) x67)))
(assert (not (= (_ bv6 8) x68)))
(assert (not (= (_ bv1 8) (_ bv7 8))))
(assert (not (= (_ bv1 8) (_ bv3 8))))
(assert (not (= (_ bv1 8) x67)))
(assert (not (= (_ bv1 8) x68)))
(assert (not (= (_ bv7 8) (_ bv3 8))))
(assert (not (= (_ bv7 8) x67)))
(assert (not (= (_ bv7 8) x68)))
(assert (not (= (_ bv3 8) x67)))
(assert (not (= (_ bv3 8) x68)))
(assert (not (= x67 x68)))
(assert (not (= (_ bv4 8) (_ bv6 8))))
(assert (not (= (_ bv4 8) x72)))
(assert (not (= (_ bv4 8) x73)))
(assert (not (= (_ bv4 8) (_ bv2 8))))
(assert (not (= (_ bv4 8) (_ bv9 8))))
(assert (not (= (_ bv4 8) x76)))
(assert (not (= (_ bv4 8) (_ bv1 8))))
(assert (not (= (_ bv4 8) x78)))
(assert (not (= (_ bv6 8) x72)))
(assert (not (= (_ bv6 8) x73)))
(assert (not (= (_ bv6 8) (_ bv2 8))))
(assert (not (= (_ bv6 8) (_ bv9 8))))
(assert (not (= (_ bv6 8) x76)))
(assert (not (= (_ bv6 8) (_ bv1 8))))
(assert (not (= (_ bv6 8) x78)))
(assert (not (= x72 x73)))
(assert (not (= x72 (_ bv2 8))))
(assert (not (= x72 (_ bv9 8))))
(assert (not (= x72 x76)))
(assert (not (= x72 (_ bv1 8))))
(assert (not (= x72 x78)))
(assert (not (= x73 (_ bv2 8))))
(assert (not (= x73 (_ bv9 8))))
(assert (not (= x73 x76)))
(assert (not (= x73 (_ bv1 8))))
(assert (not (= x73 x78)))
(assert (not (= (_ bv2 8) (_ bv9 8))))
(assert (not (= (_ bv2 8) x76)))
(assert (not (= (_ bv2 8) (_ bv1 8))))
(assert (not (= (_ bv2 8) x78)))
(assert (not (= (_ bv9 8) x76)))
(assert (not (= (_ bv9 8) (_ bv1 8))))
(assert (not (= (_ bv9 8) x78)))
(assert (not (= x76 (_ bv1 8))))
(assert (not (= x76 x78)))
(assert (not (= (_ bv1 8) x78)))
(assert (not (= x80 x81)))
(assert (not (= x80 (_ bv7 8))))
(assert (not (= x80 x83)))
(assert (not (= x80 x84)))
(assert (not (= x80 (_ bv3 8))))
(assert (not (= x80 x86)))
(assert (not (= x80 x87)))
(assert (not (= x80 (_ bv8 8))))
(assert (not (= x81 (_ bv7 8))))
(assert (not (= x81 x83)))
(assert (not (= x81 x84)))
(assert (not (= x81 (_ bv3 8))))
(assert (not (= x81 x86)))
(assert (not (= x81 x87)))
(assert (not (= x81 (_ bv8 8))))
(assert (not (= (_ bv7 8) x83)))
(assert (not (= (_ bv7 8) x84)))
(assert (not (= (_ bv7 8) (_ bv3 8))))
(assert (not (= (_ bv7 8) x86)))
(assert (not (= (_ bv7 8) x87)))
(assert (not (= (_ bv7 8) (_ bv8 8))))
(assert (not (= x83 x84)))
(assert (not (= x83 (_ bv3 8))))
(assert (not (= x83 x86)))
(assert (not (= x83 x87)))
(assert (not (= x83 (_ bv8 8))))
(assert (not (= x84 (_ bv3 8))))
(assert (not (= x84 x86)))
(assert (not (= x84 x87)))
(assert (not (= x84 (_ bv8 8))))
(assert (not (= (_ bv3 8) x86)))
(assert (not (= (_ bv3 8) x87)))
(assert (not (= (_ bv3 8) (_ bv8 8))))
(assert (not (= x86 x87)))
(assert (not (= x86 (_ bv8 8))))
(assert (not (= x87 (_ bv8 8))))
(assert (not (= x00 x10)))
(assert (not (= x00 x20)))
(assert (not (= x00 (_ bv9 8))))
(assert (not (= x00 x40)))
(assert (not (= x00 (_ bv5 8))))
(assert (not (= x00 x60)))
(assert (not (= x00 (_ bv4 8))))
(assert (not (= x00 x80)))
(assert (not (= x10 x20)))
(assert (not (= x10 (_ bv9 8))))
(assert (not (= x10 x40)))
(assert (not (= x10 (_ bv5 8))))
(assert (not (= x10 x60)))
(assert (not (= x10 (_ bv4 8))))
(assert (not (= x10 x80)))
(assert (not (= x20 (_ bv9 8))))
(assert (not (= x20 x40)))
(assert (not (= x20 (_ bv5 8))))
(assert (not (= x20 x60)))
(assert (not (= x20 (_ bv4 8))))
(assert (not (= x20 x80)))
(assert (not (= (_ bv9 8) x40)))
(assert (not (= (_ bv9 8) (_ bv5 8))))
(assert (not (= (_ bv9 8) x60)))
(assert (not (= (_ bv9 8) (_ bv4 8))))
(assert (not (= (_ bv9 8) x80)))
(assert (not (= x40 (_ bv5 8))))
(assert (not (= x40 x60)))
(assert (not (= x40 (_ bv4 8))))
(assert (not (= x40 x80)))
(assert (not (= (_ bv5 8) x60)))
(assert (not (= (_ bv5 8) (_ bv4 8))))
(assert (not (= (_ bv5 8) x80)))
(assert (not (= x60 (_ bv4 8))))
(assert (not (= x60 x80)))
(assert (not (= (_ bv4 8) x80)))
(assert (not (= (_ bv8 8) (_ bv1 8))))
(assert (not (= (_ bv8 8) x21)))
(assert (not (= (_ bv8 8) (_ bv3 8))))
(assert (not (= (_ bv8 8) x41)))
(assert (not (= (_ bv8 8) (_ bv7 8))))
(assert (not (= (_ bv8 8) x61)))
(assert (not (= (_ bv8 8) (_ bv6 8))))
(assert (not (= (_ bv8 8) x81)))
(assert (not (= (_ bv1 8) x21)))
(assert (not (= (_ bv1 8) (_ bv3 8))))
(assert (not (= (_ bv1 8) x41)))
(assert (not (= (_ bv1 8) (_ bv7 8))))
(assert (not (= (_ bv1 8) x61)))
(assert (not (= (_ bv1 8) (_ bv6 8))))
(assert (not (= (_ bv1 8) x81)))
(assert (not (= x21 (_ bv3 8))))
(assert (not (= x21 x41)))
(assert (not (= x21 (_ bv7 8))))
(assert (not (= x21 x61)))
(assert (not (= x21 (_ bv6 8))))
(assert (not (= x21 x81)))
(assert (not (= (_ bv3 8) x41)))
(assert (not (= (_ bv3 8) (_ bv7 8))))
(assert (not (= (_ bv3 8) x61)))
(assert (not (= (_ bv3 8) (_ bv6 8))))
(assert (not (= (_ bv3 8) x81)))
(assert (not (= x41 (_ bv7 8))))
(assert (not (= x41 x61)))
(assert (not (= x41 (_ bv6 8))))
(assert (not (= x41 x81)))
(assert (not (= (_ bv7 8) x61)))
(assert (not (= (_ bv7 8) (_ bv6 8))))
(assert (not (= (_ bv7 8) x81)))
(assert (not (= x61 (_ bv6 8))))
(assert (not (= x61 x81)))
(assert (not (= (_ bv6 8) x81)))
(assert (not (= x02 (_ bv9 8))))
(assert (not (= x02 x22)))
(assert (not (= x02 x32)))
(assert (not (= x02 (_ bv2 8))))
(assert (not (= x02 x52)))
(assert (not (= x02 (_ bv5 8))))
(assert (not (= x02 x72)))
(assert (not (= x02 (_ bv7 8))))
(assert (not (= (_ bv9 8) x22)))
(assert (not (= (_ bv9 8) x32)))
(assert (not (= (_ bv9 8) (_ bv2 8))))
(assert (not (= (_ bv9 8) x52)))
(assert (not (= (_ bv9 8) (_ bv5 8))))
(assert (not (= (_ bv9 8) x72)))
(assert (not (= (_ bv9 8) (_ bv7 8))))
(assert (not (= x22 x32)))
(assert (not (= x22 (_ bv2 8))))
(assert (not (= x22 x52)))
(assert (not (= x22 (_ bv5 8))))
(assert (not (= x22 x72)))
(assert (not (= x22 (_ bv7 8))))
(assert (not (= x32 (_ bv2 8))))
(assert (not (= x32 x52)))
(assert (not (= x32 (_ bv5 8))))
(assert (not (= x32 x72)))
(assert (not (= x32 (_ bv7 8))))
(assert (not (= (_ bv2 8) x52)))
(assert (not (= (_ bv2 8) (_ bv5 8))))
(assert (not (= (_ bv2 8) x72)))
(assert (not (= (_ bv2 8) (_ bv7 8))))
(assert (not (= x52 (_ bv5 8))))
(assert (not (= x52 x72)))
(assert (not (= x52 (_ bv7 8))))
(assert (not (= (_ bv5 8) x72)))
(assert (not (= (_ bv5 8) (_ bv7 8))))
(assert (not (= x72 (_ bv7 8))))
(assert (not (= (_ bv2 8) x13)))
(assert (not (= (_ bv2 8) x23)))
(assert (not (= (_ bv2 8) x33)))
(assert (not (= (_ bv2 8) x43)))
(assert (not (= (_ bv2 8) x53)))
(assert (not (= (_ bv2 8) (_ bv6 8))))
(assert (not (= (_ bv2 8) x73)))
(assert (not (= (_ bv2 8) x83)))
(assert (not (= x13 x23)))
(assert (not (= x13 x33)))
(assert (not (= x13 x43)))
(assert (not (= x13 x53)))
(assert (not (= x13 (_ bv6 8))))
(assert (not (= x13 x73)))
(assert (not (= x13 x83)))
(assert (not (= x23 x33)))
(assert (not (= x23 x43)))
(assert (not (= x23 x53)))
(assert (not (= x23 (_ bv6 8))))
(assert (not (= x23 x73)))
(assert (not (= x23 x83)))
(assert (not (= x33 x43)))
(assert (not (= x33 x53)))
(assert (not (= x33 (_ bv6 8))))
(assert (not (= x33 x73)))
(assert (not (= x33 x83)))
(assert (not (= x43 x53)))
(assert (not (= x43 (_ bv6 8))))
(assert (not (= x43 x73)))
(assert (not (= x43 x83)))
(assert (not (= x53 (_ bv6 8))))
(assert (not (= x53 x73)))
(assert (not (= x53 x83)))
(assert (not (= (_ bv6 8) x73)))
(assert (not (= (_ bv6 8) x83)))
(assert (not (= x73 x83)))
(assert (not (= x04 (_ bv5 8))))
(assert (not (= x04 (_ bv3 8))))
(assert (not (= x04 (_ bv8 8))))
(assert (not (= x04 x44)))
(assert (not (= x04 (_ bv6 8))))
(assert (not (= x04 (_ bv1 8))))
(assert (not (= x04 (_ bv2 8))))
(assert (not (= x04 x84)))
(assert (not (= (_ bv5 8) (_ bv3 8))))
(assert (not (= (_ bv5 8) (_ bv8 8))))
(assert (not (= (_ bv5 8) x44)))
(assert (not (= (_ bv5 8) (_ bv6 8))))
(assert (not (= (_ bv5 8) (_ bv1 8))))
(assert (not (= (_ bv5 8) (_ bv2 8))))
(assert (not (= (_ bv5 8) x84)))
(assert (not (= (_ bv3 8) (_ bv8 8))))
(assert (not (= (_ bv3 8) x44)))
(assert (not (= (_ bv3 8) (_ bv6 8))))
(assert (not (= (_ bv3 8) (_ bv1 8))))
(assert (not (= (_ bv3 8) (_ bv2 8))))
(assert (not (= (_ bv3 8) x84)))
(assert (not (= (_ bv8 8) x44)))
(assert (not (= (_ bv8 8) (_ bv6 8))))
(assert (not (= (_ bv8 8) (_ bv1 8))))
(assert (not (= (_ bv8 8) (_ bv2 8))))
(assert (not (= (_ bv8 8) x84)))
(assert (not (= x44 (_ bv6 8))))
(assert (not (= x44 (_ bv1 8))))
(assert (not (= x44 (_ bv2 8))))
(assert (not (= x44 x84)))
(assert (not (= (_ bv6 8) (_ bv1 8))))
(assert (not (= (_ bv6 8) (_ bv2 8))))
(assert (not (= (_ bv6 8) x84)))
(assert (not (= (_ bv1 8) (_ bv2 8))))
(assert (not (= (_ bv1 8) x84)))
(assert (not (= (_ bv2 8) x84)))
(assert (not (= x05 x15)))
(assert (not (= x05 (_ bv1 8))))
(assert (not (= x05 x35)))
(assert (not (= x05 x45)))
(assert (not (= x05 (_ bv4 8))))
(assert (not (= x05 (_ bv7 8))))
(assert (not (= x05 (_ bv9 8))))
(assert (not (= x05 (_ bv3 8))))
(assert (not (= x15 (_ bv1 8))))
(assert (not (= x15 x35)))
(assert (not (= x15 x45)))
(assert (not (= x15 (_ bv4 8))))
(assert (not (= x15 (_ bv7 8))))
(assert (not (= x15 (_ bv9 8))))
(assert (not (= x15 (_ bv3 8))))
(assert (not (= (_ bv1 8) x35)))
(assert (not (= (_ bv1 8) x45)))
(assert (not (= (_ bv1 8) (_ bv4 8))))
(assert (not (= (_ bv1 8) (_ bv7 8))))
(assert (not (= (_ bv1 8) (_ bv9 8))))
(assert (not (= (_ bv1 8) (_ bv3 8))))
(assert (not (= x35 x45)))
(assert (not (= x35 (_ bv4 8))))
(assert (not (= x35 (_ bv7 8))))
(assert (not (= x35 (_ bv9 8))))
(assert (not (= x35 (_ bv3 8))))
(assert (not (= x45 (_ bv4 8))))
(assert (not (= x45 (_ bv7 8))))
(assert (not (= x45 (_ bv9 8))))
(assert (not (= x45 (_ bv3 8))))
(assert (not (= (_ bv4 8) (_ bv7 8))))
(assert (not (= (_ bv4 8) (_ bv9 8))))
(assert (not (= (_ bv4 8) (_ bv3 8))))
(assert (not (= (_ bv7 8) (_ bv9 8))))
(assert (not (= (_ bv7 8) (_ bv3 8))))
(assert (not (= (_ bv9 8) (_ bv3 8))))
(assert (not (= x06 (_ bv6 8))))
(assert (not (= x06 (_ bv2 8))))
(assert (not (= x06 x36)))
(assert (not (= x06 x46)))
(assert (not (= x06 x56)))
(assert (not (= x06 (_ bv3 8))))
(assert (not (= x06 x76)))
(assert (not (= x06 x86)))
(assert (not (= (_ bv6 8) (_ bv2 8))))
(assert (not (= (_ bv6 8) x36)))
(assert (not (= (_ bv6 8) x46)))
(assert (not (= (_ bv6 8) x56)))
(assert (not (= (_ bv6 8) (_ bv3 8))))
(assert (not (= (_ bv6 8) x76)))
(assert (not (= (_ bv6 8) x86)))
(assert (not (= (_ bv2 8) x36)))
(assert (not (= (_ bv2 8) x46)))
(assert (not (= (_ bv2 8) x56)))
(assert (not (= (_ bv2 8) (_ bv3 8))))
(assert (not (= (_ bv2 8) x76)))
(assert (not (= (_ bv2 8) x86)))
(assert (not (= x36 x46)))
(assert (not (= x36 x56)))
(assert (not (= x36 (_ bv3 8))))
(assert (not (= x36 x76)))
(assert (not (= x36 x86)))
(assert (not (= x46 x56)))
(assert (not (= x46 (_ bv3 8))))
(assert (not (= x46 x76)))
(assert (not (= x46 x86)))
(assert (not (= x56 (_ bv3 8))))
(assert (not (= x56 x76)))
(assert (not (= x56 x86)))
(assert (not (= (_ bv3 8) x76)))
(assert (not (= (_ bv3 8) x86)))
(assert (not (= x76 x86)))
(assert (not (= (_ bv9 8) x17)))
(assert (not (= (_ bv9 8) x27)))
(assert (not (= (_ bv9 8) (_ bv5 8))))
(assert (not (= (_ bv9 8) x47)))
(assert (not (= (_ bv9 8) x57)))
(assert (not (= (_ bv9 8) x67)))
(assert (not (= (_ bv9 8) (_ bv1 8))))
(assert (not (= (_ bv9 8) x87)))
(assert (not (= x17 x27)))
(assert (not (= x17 (_ bv5 8))))
(assert (not (= x17 x47)))
(assert (not (= x17 x57)))
(assert (not (= x17 x67)))
(assert (not (= x17 (_ bv1 8))))
(assert (not (= x17 x87)))
(assert (not (= x27 (_ bv5 8))))
(assert (not (= x27 x47)))
(assert (not (= x27 x57)))
(assert (not (= x27 x67)))
(assert (not (= x27 (_ bv1 8))))
(assert (not (= x27 x87)))
(assert (not (= (_ bv5 8) x47)))
(assert (not (= (_ bv5 8) x57)))
(assert (not (= (_ bv5 8) x67)))
(assert (not (= (_ bv5 8) (_ bv1 8))))
(assert (not (= (_ bv5 8) x87)))
(assert (not (= x47 x57)))
(assert (not (= x47 x67)))
(assert (not (= x47 (_ bv1 8))))
(assert (not (= x47 x87)))
(assert (not (= x57 x67)))
(assert (not (= x57 (_ bv1 8))))
(assert (not (= x57 x87)))
(assert (not (= x67 (_ bv1 8))))
(assert (not (= x67 x87)))
(assert (not (= (_ bv1 8) x87)))
(assert (not (= x08 x18)))
(assert (not (= x08 (_ bv4 8))))
(assert (not (= x08 x38)))
(assert (not (= x08 (_ bv7 8))))
(assert (not (= x08 (_ bv9 8))))
(assert (not (= x08 x68)))
(assert (not (= x08 x78)))
(assert (not (= x08 (_ bv8 8))))
(assert (not (= x18 (_ bv4 8))))
(assert (not (= x18 x38)))
(assert (not (= x18 (_ bv7 8))))
(assert (not (= x18 (_ bv9 8))))
(assert (not (= x18 x68)))
(assert (not (= x18 x78)))
(assert (not (= x18 (_ bv8 8))))
(assert (not (= (_ bv4 8) x38)))
(assert (not (= (_ bv4 8) (_ bv7 8))))
(assert (not (= (_ bv4 8) (_ bv9 8))))
(assert (not (= (_ bv4 8) x68)))
(assert (not (= (_ bv4 8) x78)))
(assert (not (= (_ bv4 8) (_ bv8 8))))
(assert (not (= x38 (_ bv7 8))))
(assert (not (= x38 (_ bv9 8))))
(assert (not (= x38 x68)))
(assert (not (= x38 x78)))
(assert (not (= x38 (_ bv8 8))))
(assert (not (= (_ bv7 8) (_ bv9 8))))
(assert (not (= (_ bv7 8) x68)))
(assert (not (= (_ bv7 8) x78)))
(assert (not (= (_ bv7 8) (_ bv8 8))))
(assert (not (= (_ bv9 8) x68)))
(assert (not (= (_ bv9 8) x78)))
(assert (not (= (_ bv9 8) (_ bv8 8))))
(assert (not (= x68 x78)))
(assert (not (= x68 (_ bv8 8))))
(assert (not (= x78 (_ bv8 8))))
(assert (not (= x00 (_ bv8 8))))
(assert (not (= x00 x02)))
(assert (not (= x00 x10)))
(assert (not (= x00 (_ bv1 8))))
(assert (not (= x00 (_ bv9 8))))
(assert (not (= x00 x20)))
(assert (not (= x00 x21)))
(assert (not (= x00 x22)))
(assert (not (= (_ bv8 8) x02)))
(assert (not (= (_ bv8 8) x10)))
(assert (not (= (_ bv8 8) (_ bv1 8))))
(assert (not (= (_ bv8 8) (_ bv9 8))))
(assert (not (= (_ bv8 8) x20)))
(assert (not (= (_ bv8 8) x21)))
(assert (not (= (_ bv8 8) x22)))
(assert (not (= x02 x10)))
(assert (not (= x02 (_ bv1 8))))
(assert (not (= x02 (_ bv9 8))))
(assert (not (= x02 x20)))
(assert (not (= x02 x21)))
(assert (not (= x02 x22)))
(assert (not (= x10 (_ bv1 8))))
(assert (not (= x10 (_ bv9 8))))
(assert (not (= x10 x20)))
(assert (not (= x10 x21)))
(assert (not (= x10 x22)))
(assert (not (= (_ bv1 8) (_ bv9 8))))
(assert (not (= (_ bv1 8) x20)))
(assert (not (= (_ bv1 8) x21)))
(assert (not (= (_ bv1 8) x22)))
(assert (not (= (_ bv9 8) x20)))
(assert (not (= (_ bv9 8) x21)))
(assert (not (= (_ bv9 8) x22)))
(assert (not (= x20 x21)))
(assert (not (= x20 x22)))
(assert (not (= x21 x22)))
(assert (not (= (_ bv2 8) x04)))
(assert (not (= (_ bv2 8) x05)))
(assert (not (= (_ bv2 8) x13)))
(assert (not (= (_ bv2 8) (_ bv5 8))))
(assert (not (= (_ bv2 8) x15)))
(assert (not (= (_ bv2 8) x23)))
(assert (not (= (_ bv2 8) (_ bv3 8))))
(assert (not (= (_ bv2 8) (_ bv1 8))))
(assert (not (= x04 x05)))
(assert (not (= x04 x13)))
(assert (not (= x04 (_ bv5 8))))
(assert (not (= x04 x15)))
(assert (not (= x04 x23)))
(assert (not (= x04 (_ bv3 8))))
(assert (not (= x04 (_ bv1 8))))
(assert (not (= x05 x13)))
(assert (not (= x05 (_ bv5 8))))
(assert (not (= x05 x15)))
(assert (not (= x05 x23)))
(assert (not (= x05 (_ bv3 8))))
(assert (not (= x05 (_ bv1 8))))
(assert (not (= x13 (_ bv5 8))))
(assert (not (= x13 x15)))
(assert (not (= x13 x23)))
(assert (not (= x13 (_ bv3 8))))
(assert (not (= x13 (_ bv1 8))))
(assert (not (= (_ bv5 8) x15)))
(assert (not (= (_ bv5 8) x23)))
(assert (not (= (_ bv5 8) (_ bv3 8))))
(assert (not (= (_ bv5 8) (_ bv1 8))))
(assert (not (= x15 x23)))
(assert (not (= x15 (_ bv3 8))))
(assert (not (= x15 (_ bv1 8))))
(assert (not (= x23 (_ bv3 8))))
(assert (not (= x23 (_ bv1 8))))
(assert (not (= (_ bv3 8) (_ bv1 8))))
(assert (not (= x06 (_ bv9 8))))
(assert (not (= x06 x08)))
(assert (not (= x06 (_ bv6 8))))
(assert (not (= x06 x17)))
(assert (not (= x06 x18)))
(assert (not (= x06 (_ bv2 8))))
(assert (not (= x06 x27)))
(assert (not (= x06 (_ bv4 8))))
(assert (not (= (_ bv9 8) x08)))
(assert (not (= (_ bv9 8) (_ bv6 8))))
(assert (not (= (_ bv9 8) x17)))
(assert (not (= (_ bv9 8) x18)))
(assert (not (= (_ bv9 8) (_ bv2 8))))
(assert (not (= (_ bv9 8) x27)))
(assert (not (= (_ bv9 8) (_ bv4 8))))
(assert (not (= x08 (_ bv6 8))))
(assert (not (= x08 x17)))
(assert (not (= x08 x18)))
(assert (not (= x08 (_ bv2 8))))
(assert (not (= x08 x27)))
(assert (not (= x08 (_ bv4 8))))
(assert (not (= (_ bv6 8) x17)))
(assert (not (= (_ bv6 8) x18)))
(assert (not (= (_ bv6 8) (_ bv2 8))))
(assert (not (= (_ bv6 8) x27)))
(assert (not (= (_ bv6 8) (_ bv4 8))))
(assert (not (= x17 x18)))
(assert (not (= x17 (_ bv2 8))))
(assert (not (= x17 x27)))
(assert (not (= x17 (_ bv4 8))))
(assert (not (= x18 (_ bv2 8))))
(assert (not (= x18 x27)))
(assert (not (= x18 (_ bv4 8))))
(assert (not (= (_ bv2 8) x27)))
(assert (not (= (_ bv2 8) (_ bv4 8))))
(assert (not (= x27 (_ bv4 8))))
(assert (not (= (_ bv9 8) (_ bv3 8))))
(assert (not (= (_ bv9 8) x32)))
(assert (not (= (_ bv9 8) x40)))
(assert (not (= (_ bv9 8) x41)))
(assert (not (= (_ bv9 8) (_ bv2 8))))
(assert (not (= (_ bv9 8) (_ bv5 8))))
(assert (not (= (_ bv9 8) (_ bv7 8))))
(assert (not (= (_ bv9 8) x52)))
(assert (not (= (_ bv3 8) x32)))
(assert (not (= (_ bv3 8) x40)))
(assert (not (= (_ bv3 8) x41)))
(assert (not (= (_ bv3 8) (_ bv2 8))))
(assert (not (= (_ bv3 8) (_ bv5 8))))
(assert (not (= (_ bv3 8) (_ bv7 8))))
(assert (not (= (_ bv3 8) x52)))
(assert (not (= x32 x40)))
(assert (not (= x32 x41)))
(assert (not (= x32 (_ bv2 8))))
(assert (not (= x32 (_ bv5 8))))
(assert (not (= x32 (_ bv7 8))))
(assert (not (= x32 x52)))
(assert (not (= x40 x41)))
(assert (not (= x40 (_ bv2 8))))
(assert (not (= x40 (_ bv5 8))))
(assert (not (= x40 (_ bv7 8))))
(assert (not (= x40 x52)))
(assert (not (= x41 (_ bv2 8))))
(assert (not (= x41 (_ bv5 8))))
(assert (not (= x41 (_ bv7 8))))
(assert (not (= x41 x52)))
(assert (not (= (_ bv2 8) (_ bv5 8))))
(assert (not (= (_ bv2 8) (_ bv7 8))))
(assert (not (= (_ bv2 8) x52)))
(assert (not (= (_ bv5 8) (_ bv7 8))))
(assert (not (= (_ bv5 8) x52)))
(assert (not (= (_ bv7 8) x52)))
(assert (not (= x33 (_ bv8 8))))
(assert (not (= x33 x35)))
(assert (not (= x33 x43)))
(assert (not (= x33 x44)))
(assert (not (= x33 x45)))
(assert (not (= x33 x53)))
(assert (not (= x33 (_ bv6 8))))
(assert (not (= x33 (_ bv4 8))))
(assert (not (= (_ bv8 8) x35)))
(assert (not (= (_ bv8 8) x43)))
(assert (not (= (_ bv8 8) x44)))
(assert (not (= (_ bv8 8) x45)))
(assert (not (= (_ bv8 8) x53)))
(assert (not (= (_ bv8 8) (_ bv6 8))))
(assert (not (= (_ bv8 8) (_ bv4 8))))
(assert (not (= x35 x43)))
(assert (not (= x35 x44)))
(assert (not (= x35 x45)))
(assert (not (= x35 x53)))
(assert (not (= x35 (_ bv6 8))))
(assert (not (= x35 (_ bv4 8))))
(assert (not (= x43 x44)))
(assert (not (= x43 x45)))
(assert (not (= x43 x53)))
(assert (not (= x43 (_ bv6 8))))
(assert (not (= x43 (_ bv4 8))))
(assert (not (= x44 x45)))
(assert (not (= x44 x53)))
(assert (not (= x44 (_ bv6 8))))
(assert (not (= x44 (_ bv4 8))))
(assert (not (= x45 x53)))
(assert (not (= x45 (_ bv6 8))))
(assert (not (= x45 (_ bv4 8))))
(assert (not (= x53 (_ bv6 8))))
(assert (not (= x53 (_ bv4 8))))
(assert (not (= (_ bv6 8) (_ bv4 8))))
(assert (not (= x36 (_ bv5 8))))
(assert (not (= x36 x38)))
(assert (not (= x36 x46)))
(assert (not (= x36 x47)))
(assert (not (= x36 (_ bv7 8))))
(assert (not (= x36 x56)))
(assert (not (= x36 x57)))
(assert (not (= x36 (_ bv9 8))))
(assert (not (= (_ bv5 8) x38)))
(assert (not (= (_ bv5 8) x46)))
(assert (not (= (_ bv5 8) x47)))
(assert (not (= (_ bv5 8) (_ bv7 8))))
(assert (not (= (_ bv5 8) x56)))
(assert (not (= (_ bv5 8) x57)))
(assert (not (= (_ bv5 8) (_ bv9 8))))
(assert (not (= x38 x46)))
(assert (not (= x38 x47)))
(assert (not (= x38 (_ bv7 8))))
(assert (not (= x38 x56)))
(assert (not (= x38 x57)))
(assert (not (= x38 (_ bv9 8))))
(assert (not (= x46 x47)))
(assert (not (= x46 (_ bv7 8))))
(assert (not (= x46 x56)))
(assert (not (= x46 x57)))
(assert (not (= x46 (_ bv9 8))))
(assert (not (= x47 (_ bv7 8))))
(assert (not (= x47 x56)))
(assert (not (= x47 x57)))
(assert (not (= x47 (_ bv9 8))))
(assert (not (= (_ bv7 8) x56)))
(assert (not (= (_ bv7 8) x57)))
(assert (not (= (_ bv7 8) (_ bv9 8))))
(assert (not (= x56 x57)))
(assert (not (= x56 (_ bv9 8))))
(assert (not (= x57 (_ bv9 8))))
(assert (not (= x60 x61)))
(assert (not (= x60 (_ bv5 8))))
(assert (not (= x60 (_ bv4 8))))
(assert (not (= x60 (_ bv6 8))))
(assert (not (= x60 x72)))
(assert (not (= x60 x80)))
(assert (not (= x60 x81)))
(assert (not (= x60 (_ bv7 8))))
(assert (not (= x61 (_ bv5 8))))
(assert (not (= x61 (_ bv4 8))))
(assert (not (= x61 (_ bv6 8))))
(assert (not (= x61 x72)))
(assert (not (= x61 x80)))
(assert (not (= x61 x81)))
(assert (not (= x61 (_ bv7 8))))
(assert (not (= (_ bv5 8) (_ bv4 8))))
(assert (not (= (_ bv5 8) (_ bv6 8))))
(assert (not (= (_ bv5 8) x72)))
(assert (not (= (_ bv5 8) x80)))
(assert (not (= (_ bv5 8) x81)))
(assert (not (= (_ bv5 8) (_ bv7 8))))
(assert (not (= (_ bv4 8) (_ bv6 8))))
(assert (not (= (_ bv4 8) x72)))
(assert (not (= (_ bv4 8) x80)))
(assert (not (= (_ bv4 8) x81)))
(assert (not (= (_ bv4 8) (_ bv7 8))))
(assert (not (= (_ bv6 8) x72)))
(assert (not (= (_ bv6 8) x80)))
(assert (not (= (_ bv6 8) x81)))
(assert (not (= (_ bv6 8) (_ bv7 8))))
(assert (not (= x72 x80)))
(assert (not (= x72 x81)))
(assert (not (= x72 (_ bv7 8))))
(assert (not (= x80 x81)))
(assert (not (= x80 (_ bv7 8))))
(assert (not (= x81 (_ bv7 8))))
(assert (not (= (_ bv6 8) (_ bv1 8))))
(assert (not (= (_ bv6 8) (_ bv7 8))))
(assert (not (= (_ bv6 8) x73)))
(assert (not (= (_ bv6 8) (_ bv2 8))))
(assert (not (= (_ bv6 8) (_ bv9 8))))
(assert (not (= (_ bv6 8) x83)))
(assert (not (= (_ bv6 8) x84)))
(assert (not (= (_ bv6 8) (_ bv3 8))))
(assert (not (= (_ bv1 8) (_ bv7 8))))
(assert (not (= (_ bv1 8) x73)))
(assert (not (= (_ bv1 8) (_ bv2 8))))
(assert (not (= (_ bv1 8) (_ bv9 8))))
(assert (not (= (_ bv1 8) x83)))
(assert (not (= (_ bv1 8) x84)))
(assert (not (= (_ bv1 8) (_ bv3 8))))
(assert (not (= (_ bv7 8) x73)))
(assert (not (= (_ bv7 8) (_ bv2 8))))
(assert (not (= (_ bv7 8) (_ bv9 8))))
(assert (not (= (_ bv7 8) x83)))
(assert (not (= (_ bv7 8) x84)))
(assert (not (= (_ bv7 8) (_ bv3 8))))
(assert (not (= x73 (_ bv2 8))))
(assert (not (= x73 (_ bv9 8))))
(assert (not (= x73 x83)))
(assert (not (= x73 x84)))
(assert (not (= x73 (_ bv3 8))))
(assert (not (= (_ bv2 8) (_ bv9 8))))
(assert (not (= (_ bv2 8) x83)))
(assert (not (= (_ bv2 8) x84)))
(assert (not (= (_ bv2 8) (_ bv3 8))))
(assert (not (= (_ bv9 8) x83)))
(assert (not (= (_ bv9 8) x84)))
(assert (not (= (_ bv9 8) (_ bv3 8))))
(assert (not (= x83 x84)))
(assert (not (= x83 (_ bv3 8))))
(assert (not (= x84 (_ bv3 8))))
(assert (not (= (_ bv3 8) x67)))
(assert (not (= (_ bv3 8) x68)))
(assert (not (= (_ bv3 8) x76)))
(assert (not (= (_ bv3 8) (_ bv1 8))))
(assert (not (= (_ bv3 8) x78)))
(assert (not (= (_ bv3 8) x86)))
(assert (not (= (_ bv3 8) x87)))
(assert (not (= (_ bv3 8) (_ bv8 8))))
(assert (not (= x67 x68)))
(assert (not (= x67 x76)))
(assert (not (= x67 (_ bv1 8))))
(assert (not (= x67 x78)))
(assert (not (= x67 x86)))
(assert (not (= x67 x87)))
(assert (not (= x67 (_ bv8 8))))
(assert (not (= x68 x76)))
(assert (not (= x68 (_ bv1 8))))
(assert (not (= x68 x78)))
(assert (not (= x68 x86)))
(assert (not (= x68 x87)))
(assert (not (= x68 (_ bv8 8))))
(assert (not (= x76 (_ bv1 8))))
(assert (not (= x76 x78)))
(assert (not (= x76 x86)))
(assert (not (= x76 x87)))
(assert (not (= x76 (_ bv8 8))))
(assert (not (= (_ bv1 8) x78)))
(assert (not (= (_ bv1 8) x86)))
(assert (not (= (_ bv1 8) x87)))
(assert (not (= (_ bv1 8) (_ bv8 8))))
(assert (not (= x78 x86)))
(assert (not (= x78 x87)))
(assert (not (= x78 (_ bv8 8))))
(assert (not (= x86 x87)))
(assert (not (= x86 (_ bv8 8))))
(assert (not (= x87 (_ bv8 8))))
(check-sat)
(exit)
